5
4
19
4
5
2
6
13
8
20
4
14
1
18
21
5
0
1
22
21
15
25
24
9
18
9
18
25
5
7
24
13
16
25
21
22
0
9
3
3
19
20
10
24
21
27
23
8
6
6
2
6
11
7
24
2
3
23
9
25
3
21
22
25
8
22
26
3
18
25
16
18
12
21
5
17
17
17
6
11
26
22
14
12
10
22
26
21
13
25
27
27
10
26
9
0
11
8
10
11
1
20
20
10
11
27
5
10
7
21
10
0
11
15
4
2
15
6
13
12
22
16
21
19
7
0
24
11
23
3
23
1
9
23
15
14
18
16
19
14
22
0
3
22
20
16
18
9
0
3
6
27
0
0
21
4
1
13
2
17
7
22
13
12
26
11
8
7
10
15
17
1
23
9
9
13
21
12
19
14
8
2
3
16
12
27
26
10
4
24
4
19
24
14
7
7
13
27
16
20
18
5
17
7
24
20
2
25
12
11
14
15
3
8
2
17
13
1
13
14
26
1
6
26
18
20
2
19
5
4
27
7
11
19
8
0
19
5
2
27
24
23
20
8
23
11
0
1
19
4